! B3LYP def2-SVP Opt PAL8 FREQ
*xyz 0 1
  C   -1.773068    3.538284   -0.051505
  C   -0.575736    4.154721    0.001449
  C    0.574936    3.475963    0.043362
  C    0.561481    2.137066    0.033551
  C    1.723034    1.471892    0.075990
  C    1.735355    0.134562    0.067427
  C    0.603840   -0.597554    0.016682
  C    0.612508   -1.960851    0.007859
  C   -0.585138   -2.576792   -0.045439
  C   -1.735598   -1.897769   -0.087951
  C   -1.721823   -0.558922   -0.078080
  C   -2.883391    0.106211   -0.121078
  C   -2.895694    1.443521   -0.112116
  C   -1.764061    2.175156   -0.060648
  C   -0.604179    1.467370   -0.018372
  C   -0.555982    0.110420   -0.025775
  C   -2.899805    4.293032   -0.091794
  C    1.739156   -2.715955    0.049263
  C   -3.034393    5.635978   -0.088926
  C    1.868254   -4.058331    0.045003
  N    2.942894   -4.746372    0.084628
  C    2.784774   -6.223530    0.069041
  C    4.260872   -4.072764    0.141304
  N   -4.136353    6.237433   -0.128885
  O   -4.174687    7.551628   -0.122765
  O   -5.305249    5.640805   -0.178272
  H   -0.455017    5.247697    0.014143
  H    1.524373    4.038041    0.085790
  H    2.685309    2.012227    0.118521
  H    2.747899   -0.290574    0.105311
  H   -0.707302   -3.669599   -0.057631
  H   -2.685173   -2.459645   -0.130599
  H   -3.845650   -0.434095   -0.164440
  H   -3.907712    1.869764   -0.150679
  H   -3.870833    3.782872   -0.133675
  H    2.703322   -2.199605    0.093480
  H   -2.144458    6.282183   -0.049691
  H    0.979275   -4.702192    0.002950
  H    2.164991   -6.572032    0.926934
  H    2.326970   -6.563318   -0.888302
  H    3.772426   -6.728035    0.158227
  H    5.081260   -4.824099    0.163075
  H    4.434746   -3.446408   -0.763152
  H    4.365414   -3.466242    1.069629
*
