%chk=b3.chk
%mem=10GB
%nprocs=16
#P b3lyp/cc-pvdz polar

p

0 1
C    -7.1141541    3.3234504   -0.2602295 
C    -5.8477331    3.9491319   -0.2190800 
C    -4.6741915    3.2221117   -0.1449505 
C    -4.7000768    1.8120201   -0.1090151 
C    -3.4990559    1.0385484   -0.0218828 
C    -3.5322402   -0.3269286    0.0125436 
C    -4.7688619   -1.0554614   -0.0461342 
C    -4.8160596   -2.4847653   -0.0185002 
C    -6.0805938   -3.1100503   -0.0672103 
C    -7.2604482   -2.3827579   -0.1217727 
C    -7.2447463   -0.9757562   -0.1520489 
C    -8.4455939   -0.2007777   -0.2260680 
C    -8.4177748    1.1643719   -0.2623850 
C    -7.1789706    1.8931436   -0.2258863 
C    -5.9585351    1.1352116   -0.1522449 
C    -5.9875185   -0.2994113   -0.1187302 
C    -8.3279218    4.1239400   -0.3343777 
C    -3.5897560   -3.2828357    0.0469901 
C    -8.4182829    5.4666465   -0.4018342 
C    -3.5050551   -4.5400316    0.5292116 
O    -2.3458922   -5.2268369    0.5085667 
C    -2.3317088   -6.4757188    1.1738567 
N    -9.7192336    6.1116492   -0.4688539 
O    -9.7031791    7.3359168   -0.5332839 
O   -10.7346060    5.4262648   -0.4581872 
H    -5.7893955    5.0389891   -0.2422448 
H    -3.7111064    3.7381290   -0.1113150 
H    -2.5421282    1.5655496    0.0230581 
H    -2.5929278   -0.8737816    0.0958934 
H    -6.1334568   -4.2005910   -0.0955166 
H    -8.2204279   -2.9049754   -0.1641324 
H    -9.4041084   -0.7266373   -0.2543006 
H    -9.3629563    1.7030938   -0.3201908 
H    -9.2945592    3.6176892   -0.3381500 
H    -2.6549304   -2.8464700   -0.3122608 
H    -7.6107669    6.1953399   -0.4177605 
H    -4.3651596   -5.0636363    0.9671621 
H    -1.3380573   -6.9150729    1.0132900 
H    -2.4999055   -6.3591307    2.2599255 
H    -3.0955279   -7.1620006    0.7643934


