! B3LYP def2-SVP Opt PAL8 FREQ defgrid3 slowconv VeryTightSCF
*xyz 0 1
  C      -7.228982      3.036029     -0.277960
  C      -5.972786      3.680575     -0.277902
  C      -4.786362      2.977780     -0.177035
  C      -4.787438      1.571841     -0.069510
  C      -3.573387      0.822703      0.032386
  C      -3.582866     -0.539693      0.134815
  C      -4.804009     -1.295394      0.147072
  C      -4.824138     -2.726834      0.253867
  C      -6.087866     -3.363979      0.256340
  C      -7.274579     -2.659416      0.161335
  C      -7.283456     -1.255001      0.054658
  C      -8.496149     -0.506473     -0.045897
  C      -8.493540      0.855952     -0.151446
  C      -7.268445      1.607197     -0.165709
  C      -6.033981      0.872168     -0.062459
  C      -6.036583     -0.560608      0.046824
  C      -8.457296      3.815273     -0.394704
  C      -3.590814     -3.498729      0.356104
  C      -8.567885      5.163771     -0.514902
  C      -3.494606     -4.851694      0.461988
  C      -9.830733      5.815426     -0.627826
  N      -2.334995     -5.563795      0.556666
  N     -10.853578      6.362725     -0.721048
  H      -5.928726      4.768210     -0.360620
  H      -3.831773      3.510692     -0.181387
  H      -2.624151      1.365553      0.026115
  H      -2.627120     -1.057524      0.209182
  H      -6.141294     -4.451568      0.335675
  H      -8.227241     -3.196917      0.168210
  H      -9.445614     -1.049607     -0.037410
  H      -9.450715      1.370937     -0.225379
  H      -9.397432      3.261837     -0.388677
  H      -2.647046     -2.949559      0.347841
  H      -7.694379      5.821454     -0.533768
  H      -4.389807     -5.480207      0.478173
  H      -2.346106     -6.569613      0.632952
  H      -1.434309     -5.103511      0.553438
*
