! B3LYP def2-SVP Opt PAL8 FREQ 
#defgrid3 slowconv VeryTightSCF
*xyz 0 1
  C   -7.199556    2.891050   -0.273112
  C   -5.999033    3.503018   -0.275407
  C   -4.853203    2.821243   -0.179132
  C   -4.876439    1.486113   -0.076048
  C   -3.720107    0.816780    0.020158
  C   -3.718767   -0.516741    0.124185
  C   -4.857825   -1.237788    0.136850
  C   -4.861187   -2.595452    0.242589
  C   -6.060810   -3.208930    0.244307
  C   -7.206682   -2.527340    0.147367
  C   -7.183547   -1.192089    0.044378
  C   -8.339778   -0.522727   -0.051754
  C   -8.341093    0.810857   -0.155283
  C   -7.202559    1.532992   -0.167969
  C   -6.047694    0.823758   -0.069024
  C   -6.012747   -0.528911    0.037494
  C   -8.317983    3.650141   -0.373861
  C   -3.744232   -3.355674    0.345053
  C   -8.430896    4.987730   -0.481437
  C   -3.645064   -4.692242    0.453548
  C   -9.613115    5.559930   -0.570005
  N   -2.521339   -5.271980    0.542606
  N  -10.652609    6.064633   -0.647863
  H   -5.876895    4.593338   -0.355517
  H   -3.899686    3.377827   -0.186299
  H   -2.753181    1.350304    0.015491
  H   -2.712613   -0.952728    0.196564
  H   -6.180041   -4.299738    0.324725
  H   -8.159953   -3.084282    0.154197
  H   -9.306614   -1.056471   -0.047179
  H   -9.347856    1.245439   -0.227368
  H   -9.306638    3.167492   -0.373525
  H   -2.753315   -2.878451    0.346032
  H   -7.574500    5.675804   -0.502358
  H   -4.475498   -5.408952    0.477532
  H   -2.462929   -6.316841    0.626886
  H   -1.634205   -4.711112    0.533179
*