! B3LYP def2-SVP Opt PAL8 FREQ defgrid3 slowconv VeryTightSCF
*xyz 0 1
 C        -7.212639        2.890011       -0.262604
 C        -5.953859        3.529407       -0.264073
 C        -4.770151        2.821180       -0.160291
 C        -4.777689        1.415848       -0.050655
 C        -3.566231        0.662075        0.060872
 C        -3.579977       -0.699930        0.159340
 C        -4.806245       -1.450344        0.152358
 C        -4.836502       -2.880202        0.233390
 C        -6.098390       -3.515665        0.236109
 C        -7.285053       -2.804371        0.170402
 C        -7.285510       -1.399618        0.074651
 C        -8.496658       -0.645007       -0.021956
 C        -8.486705        0.716493       -0.130001
 C        -7.257649        1.462489       -0.148641
 C        -6.027202        0.722460       -0.045840
 C        -6.036090       -0.709900        0.061203
 C        -8.439050        3.674267       -0.375498
 C        -3.598809       -3.660629        0.285582
 C        -8.544079        5.022671       -0.495417
 C        -3.502774       -4.990138        0.586281
 C        -9.804522        5.680547       -0.598579
 O        -2.283997       -5.595022        0.553372
 N       -10.824086        6.234890       -0.684006
 H        -5.904777        4.616614       -0.347833
 H        -3.813438        3.350151       -0.162224
 H        -2.615670        1.202543        0.068533
 H        -2.628299       -1.222091        0.252368
 H        -6.152225       -4.607449        0.263275
 H        -8.239778       -3.337807        0.171335
 H        -9.448213       -1.184023       -0.009501
 H        -9.441452        1.236485       -0.201166
 H        -9.381537        3.124952       -0.363779
 H        -2.633355       -3.142921        0.048006
 H        -7.668136        5.677046       -0.518738
 H        -4.384713       -5.646607        0.876333
 H        -2.405306       -6.540149        0.840493
*
