! B3LYP def2-SVP Opt PAL8 FREQ 
#defgrid3 slowconv VeryTightSCF
*xyz 0 1
  C   -7.181673    2.676380   -0.233569
  C   -6.025116    3.346171   -0.197181
  C   -4.867706    2.679037   -0.097971
  C   -4.868227    1.342037   -0.097971
  C   -3.710654    0.673112   -0.086392
  C   -3.713097   -0.663450    0.022061
  C   -4.872863   -1.325629    0.085555
  C   -4.876956   -2.652183    0.252304
  C   -6.036708   -3.314386    0.315802
  C   -7.192936   -2.653800    0.170979
  C   -7.187210   -1.327112    0.005338
  C   -8.340689   -0.666270   -0.137287
  C   -8.339160    0.670762   -0.214577
  C   -7.182588    1.340528   -0.178187
  C   -6.026362    0.673987   -0.097971
  C   -6.028673   -0.659858   -0.006207
  C   -8.337316    3.342441   -0.325340
  C   -3.721298   -3.316534    0.355556
  C   -8.336401    4.678293   -0.380722
  C   -3.725392   -4.643089    0.522305
  C   -9.471299    5.332398   -0.470845
  O   -2.554175   -5.316384    0.626947
  N  -10.472222    5.909286   -0.550329
  H   -6.023974    4.444963   -0.248706
  H   -3.919078    3.229944   -0.016693
  H   -2.758363    1.217960   -0.165658
  H   -2.761802   -1.214533    0.058753
  H   -6.041367   -4.400994    0.486864
  H   -8.146261   -3.202317    0.188313
  H   -9.289647   -1.219972   -0.191074
  H   -9.289011    1.217629   -0.307954
  H   -9.288859    2.791379   -0.355277
  H   -2.767127   -2.771715    0.303314
  H   -7.384858    5.229356   -0.350784
  H   -4.679563   -5.187908    0.574547
  H   -2.759147   -6.259528    0.742055
*