! B3LYP def2-SVP Opt PAL8 FREQ defgrid3 slowconv VeryTightSCF
*xyz 0 1
 C        -7.120690        2.887685       -0.262849
 C        -5.862910        3.532295       -0.263909
 C        -4.678855        2.826439       -0.164887
 C        -4.685036        1.418971       -0.057830
 C        -3.473357        0.666767        0.044679
 C        -3.487416       -0.696294        0.147757
 C        -4.709912       -1.448660        0.159342
 C        -4.734515       -2.880294        0.265995
 C        -6.000584       -3.513864        0.260780
 C        -7.184864       -2.805497        0.165377
 C        -7.189180       -1.400261        0.061519
 C        -8.399614       -0.648720       -0.041763
 C        -8.393013        0.714415       -0.145385
 C        -7.165216        1.458896       -0.155180
 C        -5.932926        0.721643       -0.051910
 C        -5.939948       -0.710571        0.056848
 C        -8.345164        3.664856       -0.369540
 C        -3.505546       -3.654490        0.387350
 C        -8.460021        5.003550       -0.484459
 C        -3.415268       -5.007370        0.505425
 N        -2.255037       -5.732992        0.481461
 N        -9.770155        5.621136       -0.581003
 O        -9.777568        6.843581       -0.683953
 O       -10.773860        4.918182       -0.556103
 H        -5.820513        4.620229       -0.344609
 H        -3.722432        3.355824       -0.168896
 H        -2.522628        1.206794        0.037689
 H        -2.533008       -1.217112        0.220130
 H        -6.057717       -4.601819        0.331532
 H        -8.139038       -3.340241        0.166649
 H        -9.350343       -1.189536       -0.037347
 H        -9.346213        1.236462       -0.222011
 H        -9.302540        3.141385       -0.359368
 H        -2.560012       -3.108161        0.381834
 H        -7.665372        5.745489       -0.519667
 H        -4.313575       -5.631352        0.525299
 H        -2.295874       -6.685776        1.239805
 H        -1.368079       -5.244129        0.898368
*
