! B3LYP def2-SVP Opt PAL8 FREQ 
#defgrid3 slowconv VeryTightSCF
*xyz 0 1
  C   -7.124680    2.738264   -0.255765
  C   -5.923520    3.349613   -0.257371
  C   -4.776417    2.669970   -0.162584
  C   -4.796981    1.334931   -0.061303
  C   -3.638721    0.668810    0.033511
  C   -3.633823   -0.664679    0.136532
  C   -4.771317   -1.388092    0.149270
  C   -4.770883   -2.745842    0.254684
  C   -5.968669   -3.362797    0.255382
  C   -7.116233   -2.684200    0.158112
  C   -7.096362   -1.348812    0.056426
  C   -8.254144   -0.682486   -0.039364
  C   -8.258998    0.651192   -0.141208
  C   -7.123641    1.379011   -0.152856
  C   -5.967332    0.671169   -0.054916
  C   -5.927907   -0.681713    0.050301
  C   -8.247375    3.493677   -0.354049
  C   -3.652041   -3.503172    0.358008
  C   -8.374570    4.833184   -0.459494
  C   -3.549357   -4.839479    0.466465
  N   -2.424145   -5.416177    0.556365
  N   -9.473336    5.435730   -0.544580
  O   -9.504650    6.746315   -0.643979
  O  -10.645519    4.843550   -0.542156
  H   -5.796629    4.439206   -0.335313
  H   -3.823789    3.228232   -0.169090
  H   -2.673091    1.204699    0.028670
  H   -2.626572   -1.098229    0.208038
  H   -6.084938   -4.453961    0.335179
  H   -8.068037   -3.243687    0.164124
  H   -9.219420   -1.219135   -0.035687
  H   -9.268795    1.078542   -0.212855
  H   -9.221226    2.987170   -0.351218
  H   -2.662335   -3.023429    0.360162
  H   -7.480963    5.475282   -0.475291
  H   -4.377702   -5.558605    0.489696
  H   -2.363070   -6.460902    0.640457
  H   -1.538360   -4.853151    0.547696
*